
;this file is automatically generated: Thu Jan 02 16:54:47 GMT 2020

;declarations generated

(declare-fun oclExcludes ( Int Int) Bool)
(declare-fun Cardinality ( Int) Int)
(declare-fun class37_Class37BoolAttr0 ( Int) Bool)
(declare-fun obj_1c906498_ea4c_4d90_905c_20d9c5774b06 ( Int) Int)
(declare-fun oclSelect ( Int Bool) Int)
(declare-fun Enum0 ( Int) Int)
(declare-fun Enum1 ( Int) Int)
(declare-fun Enum2 ( Int) Int)
(declare-fun container_ ( Int) Int)
(declare-fun type_635321aa_8c28_4aae_9de2_153fd10a39ff_Class37 ( Int) Bool)
(declare-fun oclIncludes ( Int Int) Bool)
(declare-fun ObjAt ( Int Int) Int)

;formula(s) generated
(assert (! (exists ((c1 Int)) (and ( type_635321aa_8c28_4aae_9de2_153fd10a39ff_Class37 c1 )  ( class37_Class37BoolAttr0 ( obj_1c906498_ea4c_4d90_905c_20d9c5774b06 c1 )  ) )):named l0))
(assert (exists ((o Int)) ( type_635321aa_8c28_4aae_9de2_153fd10a39ff_Class37 ( obj_1c906498_ea4c_4d90_905c_20d9c5774b06 o )  ) ))

 ;end of formula 